0 67 34 52 27 45 4 0
0 3 44 50 18 55 25 32 0
0 29 15 57 13 54 19 0
0 46 8 35 14 53 7 0
0 48 47 36 60 20 37 5 0
0 22 42 41 43 1 33 6 0
0 51 16 49 56 23 63 68 0
0 26 12 39 9 40 17 0
0 11 66 65 38 10 58 0
0 30 21 61 28 62 2 0
